c Hopefully unsat graph coloring CNF
c Trying to color graph queen5_5 with 4 colors.
c Variable (n*colors)+k tries to color node n by color k
c so variable 1 is the first node colored by the first color
c signifying nodes start at 0 and colors at 1
p cnf 100 1305
1 2 3 4 0
5 6 7 8 0
9 10 11 12 0
13 14 15 16 0
17 18 19 20 0
21 22 23 24 0
25 26 27 28 0
29 30 31 32 0
33 34 35 36 0
37 38 39 40 0
41 42 43 44 0
45 46 47 48 0
49 50 51 52 0
53 54 55 56 0
57 58 59 60 0
61 62 63 64 0
65 66 67 68 0
69 70 71 72 0
73 74 75 76 0
77 78 79 80 0
81 82 83 84 0
85 86 87 88 0
89 90 91 92 0
93 94 95 96 0
97 98 99 100 0
-1 -25 0
-2 -26 0
-3 -27 0
-4 -28 0
-1 -49 0
-2 -50 0
-3 -51 0
-4 -52 0
-1 -73 0
-2 -74 0
-3 -75 0
-4 -76 0
-1 -97 0
-2 -98 0
-3 -99 0
-4 -100 0
-1 -5 0
-2 -6 0
-3 -7 0
-4 -8 0
-1 -9 0
-2 -10 0
-3 -11 0
-4 -12 0
-1 -13 0
-2 -14 0
-3 -15 0
-4 -16 0
-1 -17 0
-2 -18 0
-3 -19 0
-4 -20 0
-1 -21 0
-2 -22 0
-3 -23 0
-4 -24 0
-1 -41 0
-2 -42 0
-3 -43 0
-4 -44 0
-1 -61 0
-2 -62 0
-3 -63 0
-4 -64 0
-1 -81 0
-2 -82 0
-3 -83 0
-4 -84 0
-5 -29 0
-6 -30 0
-7 -31 0
-8 -32 0
-5 -53 0
-6 -54 0
-7 -55 0
-8 -56 0
-5 -77 0
-6 -78 0
-7 -79 0
-8 -80 0
-5 -21 0
-6 -22 0
-7 -23 0
-8 -24 0
-5 -9 0
-6 -10 0
-7 -11 0
-8 -12 0
-5 -13 0
-6 -14 0
-7 -15 0
-8 -16 0
-5 -17 0
-6 -18 0
-7 -19 0
-8 -20 0
-5 -25 0
-6 -26 0
-7 -27 0
-8 -28 0
-5 -45 0
-6 -46 0
-7 -47 0
-8 -48 0
-5 -65 0
-6 -66 0
-7 -67 0
-8 -68 0
-5 -85 0
-6 -86 0
-7 -87 0
-8 -88 0
-5 -1 0
-6 -2 0
-7 -3 0
-8 -4 0
-9 -33 0
-10 -34 0
-11 -35 0
-12 -36 0
-9 -57 0
-10 -58 0
-11 -59 0
-12 -60 0
-9 -25 0
-10 -26 0
-11 -27 0
-12 -28 0
-9 -41 0
-10 -42 0
-11 -43 0
-12 -44 0
-9 -13 0
-10 -14 0
-11 -15 0
-12 -16 0
-9 -17 0
-10 -18 0
-11 -19 0
-12 -20 0
-9 -29 0
-10 -30 0
-11 -31 0
-12 -32 0
-9 -49 0
-10 -50 0
-11 -51 0
-12 -52 0
-9 -69 0
-10 -70 0
-11 -71 0
-12 -72 0
-9 -89 0
-10 -90 0
-11 -91 0
-12 -92 0
-9 -5 0
-10 -6 0
-11 -7 0
-12 -8 0
-9 -1 0
-10 -2 0
-11 -3 0
-12 -4 0
-13 -37 0
-14 -38 0
-15 -39 0
-16 -40 0
-13 -29 0
-14 -30 0
-15 -31 0
-16 -32 0
-13 -45 0
-14 -46 0
-15 -47 0
-16 -48 0
-13 -61 0
-14 -62 0
-15 -63 0
-16 -64 0
-13 -17 0
-14 -18 0
-15 -19 0
-16 -20 0
-13 -33 0
-14 -34 0
-15 -35 0
-16 -36 0
-13 -53 0
-14 -54 0
-15 -55 0
-16 -56 0
-13 -73 0
-14 -74 0
-15 -75 0
-16 -76 0
-13 -93 0
-14 -94 0
-15 -95 0
-16 -96 0
-13 -9 0
-14 -10 0
-15 -11 0
-16 -12 0
-13 -5 0
-14 -6 0
-15 -7 0
-16 -8 0
-13 -1 0
-14 -2 0
-15 -3 0
-16 -4 0
-17 -33 0
-18 -34 0
-19 -35 0
-20 -36 0
-17 -49 0
-18 -50 0
-19 -51 0
-20 -52 0
-17 -65 0
-18 -66 0
-19 -67 0
-20 -68 0
-17 -81 0
-18 -82 0
-19 -83 0
-20 -84 0
-17 -37 0
-18 -38 0
-19 -39 0
-20 -40 0
-17 -57 0
-18 -58 0
-19 -59 0
-20 -60 0
-17 -77 0
-18 -78 0
-19 -79 0
-20 -80 0
-17 -97 0
-18 -98 0
-19 -99 0
-20 -100 0
-17 -13 0
-18 -14 0
-19 -15 0
-20 -16 0
-17 -9 0
-18 -10 0
-19 -11 0
-20 -12 0
-17 -5 0
-18 -6 0
-19 -7 0
-20 -8 0
-17 -1 0
-18 -2 0
-19 -3 0
-20 -4 0
-21 -45 0
-22 -46 0
-23 -47 0
-24 -48 0
-21 -69 0
-22 -70 0
-23 -71 0
-24 -72 0
-21 -93 0
-22 -94 0
-23 -95 0
-24 -96 0
-21 -25 0
-22 -26 0
-23 -27 0
-24 -28 0
-21 -29 0
-22 -30 0
-23 -31 0
-24 -32 0
-21 -33 0
-22 -34 0
-23 -35 0
-24 -36 0
-21 -37 0
-22 -38 0
-23 -39 0
-24 -40 0
-21 -41 0
-22 -42 0
-23 -43 0
-24 -44 0
-21 -61 0
-22 -62 0
-23 -63 0
-24 -64 0
-21 -81 0
-22 -82 0
-23 -83 0
-24 -84 0
-21 -5 0
-22 -6 0
-23 -7 0
-24 -8 0
-21 -1 0
-22 -2 0
-23 -3 0
-24 -4 0
-25 -49 0
-26 -50 0
-27 -51 0
-28 -52 0
-25 -73 0
-26 -74 0
-27 -75 0
-28 -76 0
-25 -97 0
-26 -98 0
-27 -99 0
-28 -100 0
-25 -41 0
-26 -42 0
-27 -43 0
-28 -44 0
-25 -29 0
-26 -30 0
-27 -31 0
-28 -32 0
-25 -33 0
-26 -34 0
-27 -35 0
-28 -36 0
-25 -37 0
-26 -38 0
-27 -39 0
-28 -40 0
-25 -45 0
-26 -46 0
-27 -47 0
-28 -48 0
-25 -65 0
-26 -66 0
-27 -67 0
-28 -68 0
-25 -85 0
-26 -86 0
-27 -87 0
-28 -88 0
-25 -21 0
-26 -22 0
-27 -23 0
-28 -24 0
-25 -9 0
-26 -10 0
-27 -11 0
-28 -12 0
-25 -5 0
-26 -6 0
-27 -7 0
-28 -8 0
-25 -1 0
-26 -2 0
-27 -3 0
-28 -4 0
-29 -53 0
-30 -54 0
-31 -55 0
-32 -56 0
-29 -77 0
-30 -78 0
-31 -79 0
-32 -80 0
-29 -45 0
-30 -46 0
-31 -47 0
-32 -48 0
-29 -61 0
-30 -62 0
-31 -63 0
-32 -64 0
-29 -33 0
-30 -34 0
-31 -35 0
-32 -36 0
-29 -37 0
-30 -38 0
-31 -39 0
-32 -40 0
-29 -49 0
-30 -50 0
-31 -51 0
-32 -52 0
-29 -69 0
-30 -70 0
-31 -71 0
-32 -72 0
-29 -89 0
-30 -90 0
-31 -91 0
-32 -92 0
-29 -25 0
-30 -26 0
-31 -27 0
-32 -28 0
-29 -21 0
-30 -22 0
-31 -23 0
-32 -24 0
-29 -13 0
-30 -14 0
-31 -15 0
-32 -16 0
-29 -9 0
-30 -10 0
-31 -11 0
-32 -12 0
-29 -5 0
-30 -6 0
-31 -7 0
-32 -8 0
-33 -57 0
-34 -58 0
-35 -59 0
-36 -60 0
-33 -49 0
-34 -50 0
-35 -51 0
-36 -52 0
-33 -65 0
-34 -66 0
-35 -67 0
-36 -68 0
-33 -81 0
-34 -82 0
-35 -83 0
-36 -84 0
-33 -37 0
-34 -38 0
-35 -39 0
-36 -40 0
-33 -53 0
-34 -54 0
-35 -55 0
-36 -56 0
-33 -73 0
-34 -74 0
-35 -75 0
-36 -76 0
-33 -93 0
-34 -94 0
-35 -95 0
-36 -96 0
-33 -29 0
-34 -30 0
-35 -31 0
-36 -32 0
-33 -25 0
-34 -26 0
-35 -27 0
-36 -28 0
-33 -21 0
-34 -22 0
-35 -23 0
-36 -24 0
-33 -17 0
-34 -18 0
-35 -19 0
-36 -20 0
-33 -13 0
-34 -14 0
-35 -15 0
-36 -16 0
-33 -9 0
-34 -10 0
-35 -11 0
-36 -12 0
-37 -53 0
-38 -54 0
-39 -55 0
-40 -56 0
-37 -69 0
-38 -70 0
-39 -71 0
-40 -72 0
-37 -85 0
-38 -86 0
-39 -87 0
-40 -88 0
-37 -57 0
-38 -58 0
-39 -59 0
-40 -60 0
-37 -77 0
-38 -78 0
-39 -79 0
-40 -80 0
-37 -97 0
-38 -98 0
-39 -99 0
-40 -100 0
-37 -33 0
-38 -34 0
-39 -35 0
-40 -36 0
-37 -29 0
-38 -30 0
-39 -31 0
-40 -32 0
-37 -25 0
-38 -26 0
-39 -27 0
-40 -28 0
-37 -21 0
-38 -22 0
-39 -23 0
-40 -24 0
-37 -17 0
-38 -18 0
-39 -19 0
-40 -20 0
-37 -13 0
-38 -14 0
-39 -15 0
-40 -16 0
-41 -65 0
-42 -66 0
-43 -67 0
-44 -68 0
-41 -89 0
-42 -90 0
-43 -91 0
-44 -92 0
-41 -45 0
-42 -46 0
-43 -47 0
-44 -48 0
-41 -49 0
-42 -50 0
-43 -51 0
-44 -52 0
-41 -53 0
-42 -54 0
-43 -55 0
-44 -56 0
-41 -57 0
-42 -58 0
-43 -59 0
-44 -60 0
-41 -61 0
-42 -62 0
-43 -63 0
-44 -64 0
-41 -81 0
-42 -82 0
-43 -83 0
-44 -84 0
-41 -25 0
-42 -26 0
-43 -27 0
-44 -28 0
-41 -21 0
-42 -22 0
-43 -23 0
-44 -24 0
-41 -9 0
-42 -10 0
-43 -11 0
-44 -12 0
-41 -1 0
-42 -2 0
-43 -3 0
-44 -4 0
-45 -69 0
-46 -70 0
-47 -71 0
-48 -72 0
-45 -93 0
-46 -94 0
-47 -95 0
-48 -96 0
-45 -61 0
-46 -62 0
-47 -63 0
-48 -64 0
-45 -49 0
-46 -50 0
-47 -51 0
-48 -52 0
-45 -53 0
-46 -54 0
-47 -55 0
-48 -56 0
-45 -57 0
-46 -58 0
-47 -59 0
-48 -60 0
-45 -65 0
-46 -66 0
-47 -67 0
-48 -68 0
-45 -85 0
-46 -86 0
-47 -87 0
-48 -88 0
-45 -41 0
-46 -42 0
-47 -43 0
-48 -44 0
-45 -29 0
-46 -30 0
-47 -31 0
-48 -32 0
-45 -25 0
-46 -26 0
-47 -27 0
-48 -28 0
-45 -21 0
-46 -22 0
-47 -23 0
-48 -24 0
-45 -13 0
-46 -14 0
-47 -15 0
-48 -16 0
-45 -5 0
-46 -6 0
-47 -7 0
-48 -8 0
-49 -73 0
-50 -74 0
-51 -75 0
-52 -76 0
-49 -97 0
-50 -98 0
-51 -99 0
-52 -100 0
-49 -65 0
-50 -66 0
-51 -67 0
-52 -68 0
-49 -81 0
-50 -82 0
-51 -83 0
-52 -84 0
-49 -53 0
-50 -54 0
-51 -55 0
-52 -56 0
-49 -57 0
-50 -58 0
-51 -59 0
-52 -60 0
-49 -69 0
-50 -70 0
-51 -71 0
-52 -72 0
-49 -89 0
-50 -90 0
-51 -91 0
-52 -92 0
-49 -45 0
-50 -46 0
-51 -47 0
-52 -48 0
-49 -41 0
-50 -42 0
-51 -43 0
-52 -44 0
-49 -33 0
-50 -34 0
-51 -35 0
-52 -36 0
-49 -29 0
-50 -30 0
-51 -31 0
-52 -32 0
-49 -25 0
-50 -26 0
-51 -27 0
-52 -28 0
-49 -17 0
-50 -18 0
-51 -19 0
-52 -20 0
-49 -9 0
-50 -10 0
-51 -11 0
-52 -12 0
-49 -1 0
-50 -2 0
-51 -3 0
-52 -4 0
-53 -77 0
-54 -78 0
-55 -79 0
-56 -80 0
-53 -69 0
-54 -70 0
-55 -71 0
-56 -72 0
-53 -85 0
-54 -86 0
-55 -87 0
-56 -88 0
-53 -57 0
-54 -58 0
-55 -59 0
-56 -60 0
-53 -73 0
-54 -74 0
-55 -75 0
-56 -76 0
-53 -93 0
-54 -94 0
-55 -95 0
-56 -96 0
-53 -49 0
-54 -50 0
-55 -51 0
-56 -52 0
-53 -45 0
-54 -46 0
-55 -47 0
-56 -48 0
-53 -41 0
-54 -42 0
-55 -43 0
-56 -44 0
-53 -37 0
-54 -38 0
-55 -39 0
-56 -40 0
-53 -33 0
-54 -34 0
-55 -35 0
-56 -36 0
-53 -29 0
-54 -30 0
-55 -31 0
-56 -32 0
-53 -13 0
-54 -14 0
-55 -15 0
-56 -16 0
-53 -5 0
-54 -6 0
-55 -7 0
-56 -8 0
-57 -73 0
-58 -74 0
-59 -75 0
-60 -76 0
-57 -89 0
-58 -90 0
-59 -91 0
-60 -92 0
-57 -77 0
-58 -78 0
-59 -79 0
-60 -80 0
-57 -97 0
-58 -98 0
-59 -99 0
-60 -100 0
-57 -53 0
-58 -54 0
-59 -55 0
-60 -56 0
-57 -49 0
-58 -50 0
-59 -51 0
-60 -52 0
-57 -45 0
-58 -46 0
-59 -47 0
-60 -48 0
-57 -41 0
-58 -42 0
-59 -43 0
-60 -44 0
-57 -37 0
-58 -38 0
-59 -39 0
-60 -40 0
-57 -33 0
-58 -34 0
-59 -35 0
-60 -36 0
-57 -17 0
-58 -18 0
-59 -19 0
-60 -20 0
-57 -9 0
-58 -10 0
-59 -11 0
-60 -12 0
-61 -85 0
-62 -86 0
-63 -87 0
-64 -88 0
-61 -65 0
-62 -66 0
-63 -67 0
-64 -68 0
-61 -69 0
-62 -70 0
-63 -71 0
-64 -72 0
-61 -73 0
-62 -74 0
-63 -75 0
-64 -76 0
-61 -77 0
-62 -78 0
-63 -79 0
-64 -80 0
-61 -81 0
-62 -82 0
-63 -83 0
-64 -84 0
-61 -45 0
-62 -46 0
-63 -47 0
-64 -48 0
-61 -41 0
-62 -42 0
-63 -43 0
-64 -44 0
-61 -29 0
-62 -30 0
-63 -31 0
-64 -32 0
-61 -21 0
-62 -22 0
-63 -23 0
-64 -24 0
-61 -13 0
-62 -14 0
-63 -15 0
-64 -16 0
-61 -1 0
-62 -2 0
-63 -3 0
-64 -4 0
-65 -89 0
-66 -90 0
-67 -91 0
-68 -92 0
-65 -81 0
-66 -82 0
-67 -83 0
-68 -84 0
-65 -69 0
-66 -70 0
-67 -71 0
-68 -72 0
-65 -73 0
-66 -74 0
-67 -75 0
-68 -76 0
-65 -77 0
-66 -78 0
-67 -79 0
-68 -80 0
-65 -85 0
-66 -86 0
-67 -87 0
-68 -88 0
-65 -61 0
-66 -62 0
-67 -63 0
-68 -64 0
-65 -49 0
-66 -50 0
-67 -51 0
-68 -52 0
-65 -45 0
-66 -46 0
-67 -47 0
-68 -48 0
-65 -41 0
-66 -42 0
-67 -43 0
-68 -44 0
-65 -33 0
-66 -34 0
-67 -35 0
-68 -36 0
-65 -25 0
-66 -26 0
-67 -27 0
-68 -28 0
-65 -17 0
-66 -18 0
-67 -19 0
-68 -20 0
-65 -5 0
-66 -6 0
-67 -7 0
-68 -8 0
-69 -93 0
-70 -94 0
-71 -95 0
-72 -96 0
-69 -85 0
-70 -86 0
-71 -87 0
-72 -88 0
-69 -73 0
-70 -74 0
-71 -75 0
-72 -76 0
-69 -77 0
-70 -78 0
-71 -79 0
-72 -80 0
-69 -89 0
-70 -90 0
-71 -91 0
-72 -92 0
-69 -65 0
-70 -66 0
-71 -67 0
-72 -68 0
-69 -61 0
-70 -62 0
-71 -63 0
-72 -64 0
-69 -53 0
-70 -54 0
-71 -55 0
-72 -56 0
-69 -49 0
-70 -50 0
-71 -51 0
-72 -52 0
-69 -45 0
-70 -46 0
-71 -47 0
-72 -48 0
-69 -37 0
-70 -38 0
-71 -39 0
-72 -40 0
-69 -29 0
-70 -30 0
-71 -31 0
-72 -32 0
-69 -21 0
-70 -22 0
-71 -23 0
-72 -24 0
-69 -9 0
-70 -10 0
-71 -11 0
-72 -12 0
-73 -97 0
-74 -98 0
-75 -99 0
-76 -100 0
-73 -89 0
-74 -90 0
-75 -91 0
-76 -92 0
-73 -77 0
-74 -78 0
-75 -79 0
-76 -80 0
-73 -93 0
-74 -94 0
-75 -95 0
-76 -96 0
-73 -69 0
-74 -70 0
-75 -71 0
-76 -72 0
-73 -65 0
-74 -66 0
-75 -67 0
-76 -68 0
-73 -61 0
-74 -62 0
-75 -63 0
-76 -64 0
-73 -57 0
-74 -58 0
-75 -59 0
-76 -60 0
-73 -53 0
-74 -54 0
-75 -55 0
-76 -56 0
-73 -49 0
-74 -50 0
-75 -51 0
-76 -52 0
-73 -33 0
-74 -34 0
-75 -35 0
-76 -36 0
-73 -25 0
-74 -26 0
-75 -27 0
-76 -28 0
-73 -13 0
-74 -14 0
-75 -15 0
-76 -16 0
-73 -1 0
-74 -2 0
-75 -3 0
-76 -4 0
-77 -93 0
-78 -94 0
-79 -95 0
-80 -96 0
-77 -97 0
-78 -98 0
-79 -99 0
-80 -100 0
-77 -73 0
-78 -74 0
-79 -75 0
-80 -76 0
-77 -69 0
-78 -70 0
-79 -71 0
-80 -72 0
-77 -65 0
-78 -66 0
-79 -67 0
-80 -68 0
-77 -61 0
-78 -62 0
-79 -63 0
-80 -64 0
-77 -57 0
-78 -58 0
-79 -59 0
-80 -60 0
-77 -53 0
-78 -54 0
-79 -55 0
-80 -56 0
-77 -37 0
-78 -38 0
-79 -39 0
-80 -40 0
-77 -29 0
-78 -30 0
-79 -31 0
-80 -32 0
-77 -17 0
-78 -18 0
-79 -19 0
-80 -20 0
-77 -5 0
-78 -6 0
-79 -7 0
-80 -8 0
-81 -85 0
-82 -86 0
-83 -87 0
-84 -88 0
-81 -89 0
-82 -90 0
-83 -91 0
-84 -92 0
-81 -93 0
-82 -94 0
-83 -95 0
-84 -96 0
-81 -97 0
-82 -98 0
-83 -99 0
-84 -100 0
-81 -65 0
-82 -66 0
-83 -67 0
-84 -68 0
-81 -61 0
-82 -62 0
-83 -63 0
-84 -64 0
-81 -49 0
-82 -50 0
-83 -51 0
-84 -52 0
-81 -41 0
-82 -42 0
-83 -43 0
-84 -44 0
-81 -33 0
-82 -34 0
-83 -35 0
-84 -36 0
-81 -21 0
-82 -22 0
-83 -23 0
-84 -24 0
-81 -17 0
-82 -18 0
-83 -19 0
-84 -20 0
-81 -1 0
-82 -2 0
-83 -3 0
-84 -4 0
-85 -89 0
-86 -90 0
-87 -91 0
-88 -92 0
-85 -93 0
-86 -94 0
-87 -95 0
-88 -96 0
-85 -97 0
-86 -98 0
-87 -99 0
-88 -100 0
-85 -81 0
-86 -82 0
-87 -83 0
-88 -84 0
-85 -69 0
-86 -70 0
-87 -71 0
-88 -72 0
-85 -65 0
-86 -66 0
-87 -67 0
-88 -68 0
-85 -61 0
-86 -62 0
-87 -63 0
-88 -64 0
-85 -53 0
-86 -54 0
-87 -55 0
-88 -56 0
-85 -45 0
-86 -46 0
-87 -47 0
-88 -48 0
-85 -37 0
-86 -38 0
-87 -39 0
-88 -40 0
-85 -25 0
-86 -26 0
-87 -27 0
-88 -28 0
-85 -5 0
-86 -6 0
-87 -7 0
-88 -8 0
-89 -93 0
-90 -94 0
-91 -95 0
-92 -96 0
-89 -97 0
-90 -98 0
-91 -99 0
-92 -100 0
-89 -85 0
-90 -86 0
-91 -87 0
-92 -88 0
-89 -81 0
-90 -82 0
-91 -83 0
-92 -84 0
-89 -73 0
-90 -74 0
-91 -75 0
-92 -76 0
-89 -69 0
-90 -70 0
-91 -71 0
-92 -72 0
-89 -65 0
-90 -66 0
-91 -67 0
-92 -68 0
-89 -57 0
-90 -58 0
-91 -59 0
-92 -60 0
-89 -49 0
-90 -50 0
-91 -51 0
-92 -52 0
-89 -41 0
-90 -42 0
-91 -43 0
-92 -44 0
-89 -29 0
-90 -30 0
-91 -31 0
-92 -32 0
-89 -9 0
-90 -10 0
-91 -11 0
-92 -12 0
-93 -97 0
-94 -98 0
-95 -99 0
-96 -100 0
-93 -89 0
-94 -90 0
-95 -91 0
-96 -92 0
-93 -85 0
-94 -86 0
-95 -87 0
-96 -88 0
-93 -81 0
-94 -82 0
-95 -83 0
-96 -84 0
-93 -77 0
-94 -78 0
-95 -79 0
-96 -80 0
-93 -73 0
-94 -74 0
-95 -75 0
-96 -76 0
-93 -69 0
-94 -70 0
-95 -71 0
-96 -72 0
-93 -53 0
-94 -54 0
-95 -55 0
-96 -56 0
-93 -45 0
-94 -46 0
-95 -47 0
-96 -48 0
-93 -33 0
-94 -34 0
-95 -35 0
-96 -36 0
-93 -21 0
-94 -22 0
-95 -23 0
-96 -24 0
-93 -13 0
-94 -14 0
-95 -15 0
-96 -16 0
-97 -93 0
-98 -94 0
-99 -95 0
-100 -96 0
-97 -89 0
-98 -90 0
-99 -91 0
-100 -92 0
-97 -85 0
-98 -86 0
-99 -87 0
-100 -88 0
-97 -81 0
-98 -82 0
-99 -83 0
-100 -84 0
-97 -77 0
-98 -78 0
-99 -79 0
-100 -80 0
-97 -73 0
-98 -74 0
-99 -75 0
-100 -76 0
-97 -57 0
-98 -58 0
-99 -59 0
-100 -60 0
-97 -49 0
-98 -50 0
-99 -51 0
-100 -52 0
-97 -37 0
-98 -38 0
-99 -39 0
-100 -40 0
-97 -25 0
-98 -26 0
-99 -27 0
-100 -28 0
-97 -17 0
-98 -18 0
-99 -19 0
-100 -20 0
-97 -1 0
-98 -2 0
-99 -3 0
-100 -4 0
